424 5
10 10 10 10 10 

0 0 0 0 0 0 5 2 14 26 38 50 
0 0 0 0 0 0 3 3 6 12 
6 0 0 0 1 0 2 5 4 
10 0 0 0 3 0 3 11 10 7 
1 0 0 0 4 0 2 11 8 
7 0 0 0 3 0 2 10 8 
9 0 0 0 2 0 1 8 
1 0 0 0 4 0 1 9 
10 0 0 0 2 0 1 13 
8 0 0 0 1 0 1 13 
6 0 0 0 3 0 2 13 186 
7 0 0 0 2 0 1 13 
0 0 0 0 0 0 1 62 
0 0 0 0 0 0 3 15 17 24 
6 0 0 1 0 0 1 16 
8 0 0 2 0 0 2 19 18 
6 0 0 1 0 0 2 19 18 
9 0 0 2 0 0 4 23 22 20 120 
9 0 0 3 0 0 2 22 21 
6 0 0 2 0 0 1 21 
9 0 0 5 0 0 1 25 
3 0 0 5 0 0 1 25 
7 0 0 1 0 0 1 25 
2 0 0 3 0 0 1 25 
0 0 0 0 0 0 1 62 
0 0 0 0 0 0 5 27 29 31 33 36 
1 0 0 0 1 0 2 35 28 
7 0 0 0 1 0 1 30 
6 0 0 0 2 0 1 30 
5 0 0 0 3 0 1 32 
9 0 0 0 2 0 1 32 
10 0 0 0 5 0 1 34 
9 0 0 0 2 0 1 35 
7 0 0 0 2 0 2 37 288 
3 0 0 0 4 0 1 37 
4 0 0 0 3 0 1 37 
0 0 0 0 0 0 1 62 
0 0 0 0 0 0 2 39 40 
2 1 0 0 0 0 2 48 41 
4 2 0 0 0 0 2 44 42 
4 2 0 0 0 0 2 47 43 
4 1 0 0 0 0 4 48 47 46 45 
3 5 0 0 0 0 2 46 44 
9 2 0 0 0 0 1 45 
7 3 0 0 0 0 1 49 
2 5 0 0 0 0 2 49 228 
8 3 0 0 0 0 1 49 
9 1 0 0 0 0 1 49 
0 0 0 0 0 0 1 62 
0 0 0 0 0 0 3 51 53 54 
7 0 0 1 0 0 1 52 
9 0 0 2 0 0 2 58 55 
10 0 0 5 0 0 3 60 58 57 
6 0 0 4 0 0 3 59 56 253 
4 0 0 3 0 0 1 56 
3 0 0 3 0 0 1 57 
1 0 0 2 0 0 1 61 
7 0 0 2 0 0 1 61 
3 0 0 2 0 0 1 61 
9 0 0 1 0 0 1 61 
0 0 0 0 0 0 1 62 
0 0 0 0 0 0 5 63 75 87 99 111 
0 0 0 0 0 0 5 64 68 69 70 73 
1 0 0 0 1 0 1 65 
3 0 0 0 1 0 1 66 
5 0 0 0 3 0 2 72 67 
2 0 0 0 2 0 1 71 
10 0 0 0 4 0 1 71 
1 0 0 0 3 0 1 71 
4 0 0 0 4 0 1 71 
8 0 0 0 3 0 2 74 90 
4 0 0 0 2 0 1 74 
9 0 0 0 2 0 1 74 
0 0 0 0 0 0 1 123 
0 0 0 0 0 0 3 76 77 78 
9 0 0 0 1 0 3 81 80 79 
7 0 0 0 3 0 3 81 80 79 
2 0 0 0 1 0 2 81 80 
10 0 0 0 1 0 2 85 82 
5 0 0 0 2 0 1 82 
8 0 0 0 3 0 3 85 84 153 
7 0 0 0 4 0 1 83 
9 0 0 0 4 0 1 84 
10 0 0 0 5 0 1 86 
7 0 0 0 1 0 1 86 
0 0 0 0 0 0 1 123 
0 0 0 0 0 0 4 88 91 92 211 
6 0 1 0 0 0 1 89 
3 0 1 0 0 0 1 90 
1 0 4 0 0 0 3 95 94 93 
8 0 2 0 0 0 2 95 94 
5 0 3 0 0 0 2 95 93 
6 0 2 0 0 0 2 97 96 
10 0 4 0 0 0 2 97 96 
9 0 3 0 0 0 1 96 
9 0 4 0 0 0 1 98 
10 0 1 0 0 0 1 98 
0 0 0 0 0 0 1 123 
0 0 0 0 0 0 4 100 101 102 373 
8 0 0 0 1 0 2 106 103 
4 0 0 0 6 0 2 105 104 
3 0 0 0 3 0 1 103 
5 0 0 0 4 0 1 104 
2 0 0 0 4 0 1 107 
9 0 0 0 1 0 1 107 
2 0 0 0 3 0 1 107 
2 0 0 0 1 0 2 109 108 
7 0 0 0 1 0 1 110 
7 0 0 0 1 0 1 110 
0 0 0 0 0 0 1 123 
0 0 0 0 0 0 3 112 115 121 
4 0 1 0 0 0 2 119 113 
5 0 2 0 0 0 2 120 114 
2 0 2 0 0 0 2 117 116 
3 0 8 0 0 0 3 119 117 204 
8 0 1 0 0 0 1 118 
4 0 1 0 0 0 1 122 
2 0 2 0 0 0 1 122 
4 0 3 0 0 0 1 122 
10 0 2 0 0 0 1 122 
1 0 3 0 0 0 1 122 
0 0 0 0 0 0 1 123 
0 0 0 0 0 0 5 124 156 188 220 232 
0 0 0 0 0 0 6 125 150 151 152 153 154 
4 0 1 1 0 1 3 149 148 126 
8 0 5 1 0 1 3 147 146 127 
5 0 1 3 0 3 1 128 
9 0 3 2 0 1 2 145 129 
1 0 3 1 0 4 1 130 
8 0 2 5 0 4 2 144 131 
4 0 2 3 0 2 3 143 142 132 
4 0 1 3 0 1 1 133 
10 0 4 1 0 2 1 134 
10 0 3 3 0 2 2 141 135 
7 0 3 3 0 1 2 140 136 
7 0 2 4 0 4 1 137 
1 0 2 2 0 3 1 138 
9 0 2 1 0 3 1 139 
1 0 3 4 0 2 1 155 
8 0 4 3 0 2 1 155 
9 0 2 4 0 3 1 155 
8 0 2 4 0 3 1 155 
9 0 2 1 0 4 2 155 410 
5 0 2 2 0 2 1 155 
10 0 1 3 0 4 1 155 
6 0 2 1 0 4 1 155 
2 0 4 4 0 3 1 155 
1 0 2 2 0 2 1 155 
2 0 3 1 0 4 1 155 
8 0 3 2 0 3 1 155 
4 0 3 3 0 2 1 155 
2 0 3 3 0 2 1 155 
4 0 3 3 0 1 1 155 
5 0 2 2 0 2 1 155 
0 0 0 0 0 0 1 424 
0 0 0 0 0 0 3 157 158 160 
3 1 1 1 0 0 1 159 
4 1 2 3 0 0 1 159 
3 1 3 2 0 0 3 164 163 161 
10 2 3 2 0 0 3 164 163 162 
9 4 3 3 0 0 1 162 
9 5 3 2 0 0 2 166 165 
6 1 3 2 0 0 2 166 165 
6 3 2 3 0 0 2 166 165 
7 1 5 3 0 0 2 168 167 
10 1 2 4 0 0 1 167 
10 3 1 3 0 0 3 171 169 356 
2 4 2 3 0 0 1 169 
1 5 5 4 0 0 2 172 170 
3 6 2 3 0 0 2 174 173 
2 1 1 2 0 0 1 172 
6 2 2 4 0 0 2 178 175 
5 2 1 3 0 0 2 178 175 
1 2 3 3 0 0 2 178 175 
8 5 2 2 0 0 1 176 
3 2 2 1 0 0 1 177 
1 2 2 1 0 0 2 182 179 
1 1 2 1 0 0 1 179 
4 3 3 2 0 0 3 186 181 180 
1 2 2 3 0 0 2 185 184 
2 2 2 5 0 0 1 183 
10 3 3 2 0 0 1 183 
6 2 3 2 0 0 1 187 
1 4 4 2 0 0 1 187 
9 1 2 1 0 0 1 187 
3 3 4 3 0 0 1 187 
0 0 0 0 0 0 1 424 
0 0 0 0 0 0 3 189 190 195 
8 0 1 0 1 1 2 200 191 
7 0 1 0 2 4 2 200 191 
7 0 2 0 3 2 2 196 192 
7 0 3 0 2 2 2 198 193 
5 0 4 0 2 3 1 194 
8 0 2 0 2 4 3 205 203 197 
6 0 2 0 3 2 2 200 199 
2 0 3 0 4 3 1 198 
1 0 3 0 4 2 1 199 
7 0 1 0 1 2 1 199 
9 0 4 0 1 5 3 211 207 201 
5 0 4 0 3 1 2 205 201 
3 0 1 0 4 2 1 202 
3 0 2 0 2 5 2 210 204 
3 0 2 0 4 2 1 204 
6 0 3 0 2 4 1 206 
3 0 4 0 3 2 1 206 
6 0 1 0 2 3 2 218 208 
10 0 2 0 2 2 2 218 208 
6 0 3 0 3 2 2 213 209 
7 0 3 0 2 2 4 217 216 214 212 
6 0 3 0 4 5 2 214 212 
5 0 1 0 3 2 2 218 216 
7 0 2 0 4 1 1 215 
4 0 3 0 1 3 1 214 
2 0 3 0 4 1 1 219 
6 0 3 0 1 3 1 219 
5 0 4 0 2 2 1 219 
6 0 3 0 3 2 1 219 
5 0 2 0 1 1 1 219 
0 0 0 0 0 0 1 424 
0 0 0 0 0 0 3 221 226 230 
1 1 0 0 0 0 2 225 222 
3 3 0 0 0 0 2 229 223 
8 5 0 0 0 0 2 228 224 
4 1 0 0 0 0 1 227 
4 3 0 0 0 0 1 227 
3 3 0 0 0 0 1 227 
9 1 0 0 0 0 1 231 
9 3 0 0 0 0 1 231 
5 1 0 0 0 0 1 231 
1 4 0 0 0 0 1 231 
0 0 0 0 0 0 5 264 276 298 320 342 
0 0 0 0 0 0 3 233 247 262 
8 1 0 0 1 1 2 261 234 
8 1 0 0 2 3 2 259 235 
1 2 0 0 2 2 1 236 
4 2 0 0 6 3 3 258 257 237 
5 1 0 0 3 1 3 256 255 238 
5 1 0 0 4 2 2 254 239 
4 3 0 0 3 4 1 240 
6 4 0 0 3 3 2 253 241 
3 3 0 0 2 2 1 242 
3 5 0 0 3 3 2 252 243 
8 1 0 0 2 1 3 251 250 244 
6 2 0 0 2 4 2 249 245 
1 3 0 0 3 1 1 246 
9 2 0 0 1 2 1 248 
3 4 0 0 2 2 1 260 
7 3 0 0 2 1 1 263 
9 1 0 0 5 3 1 263 
3 3 0 0 1 6 1 263 
5 4 0 0 4 3 1 263 
1 3 0 0 3 1 1 263 
4 2 0 0 1 4 1 263 
7 6 0 0 4 3 1 263 
6 1 0 0 1 2 1 263 
9 3 0 0 3 2 1 263 
5 2 0 0 2 3 1 263 
2 3 0 0 2 3 1 263 
6 1 0 0 2 2 1 263 
4 1 0 0 3 3 1 263 
9 5 0 0 1 1 1 263 
10 2 0 0 2 4 1 263 
0 0 0 0 0 0 1 424 
0 0 0 0 0 0 1 265 
7 0 0 0 0 1 4 272 271 268 266 
5 0 0 0 0 1 2 270 267 
10 0 0 0 0 2 2 273 269 
10 0 0 0 0 3 2 273 269 
6 0 0 0 0 4 1 274 
6 0 0 0 0 4 1 273 
1 0 0 0 0 1 1 274 
3 0 0 0 0 3 1 273 
6 0 0 0 0 5 1 275 
10 0 0 0 0 1 1 275 
0 0 0 0 0 0 5 364 376 388 400 412 
0 0 0 0 0 0 1 277 
3 0 1 0 1 0 2 280 278 
3 0 2 0 2 0 1 279 
6 0 3 0 1 0 1 281 
3 0 4 0 2 0 1 281 
8 0 2 0 2 0 2 283 282 
7 0 2 0 2 0 3 293 289 284 
6 0 3 0 1 0 2 289 285 
4 0 2 0 2 0 1 285 
3 0 3 0 3 0 3 288 287 286 
2 0 2 0 3 0 4 296 295 292 290 
7 0 3 0 1 0 4 296 295 291 290 
9 0 2 0 2 0 4 295 292 291 290 
1 0 2 0 3 0 2 295 294 
7 0 1 0 4 0 1 294 
1 0 2 0 2 0 1 294 
2 0 1 0 5 0 1 294 
9 0 5 0 5 0 1 296 
2 0 6 0 5 0 1 297 
6 0 1 0 2 0 1 297 
7 0 3 0 2 0 1 297 
0 0 0 0 0 0 1 424 
0 0 0 0 0 0 4 299 316 317 318 
9 1 0 0 0 1 5 315 314 313 312 300 
3 2 0 0 0 2 1 301 
10 4 0 0 0 4 1 302 
9 1 0 0 0 1 2 311 303 
6 3 0 0 0 4 3 310 309 304 
9 2 0 0 0 3 1 305 
4 2 0 0 0 4 1 306 
1 2 0 0 0 3 1 307 
3 2 0 0 0 1 1 308 
3 1 0 0 0 2 1 319 
2 1 0 0 0 3 1 319 
8 3 0 0 0 2 1 319 
9 3 0 0 0 3 1 319 
6 4 0 0 0 1 1 319 
4 4 0 0 0 4 1 319 
9 3 0 0 0 3 1 319 
4 5 0 0 0 1 1 319 
8 3 0 0 0 2 1 319 
9 2 0 0 0 4 1 319 
2 2 0 0 0 2 1 319 
0 0 0 0 0 0 1 424 
0 0 0 0 0 0 4 321 338 339 340 
6 0 1 0 0 1 2 337 322 
7 0 1 0 0 1 3 336 335 323 
6 0 3 0 0 2 2 334 324 
10 0 4 0 0 2 2 333 325 
4 0 3 0 0 5 3 332 331 326 
4 0 3 0 0 2 1 327 
2 0 2 0 0 1 1 328 
5 0 2 0 0 2 1 329 
9 0 3 0 0 4 1 330 
7 0 3 0 0 3 1 341 
8 0 1 0 0 2 1 341 
10 0 1 0 0 4 1 341 
2 0 2 0 0 1 1 341 
3 0 2 0 0 2 1 341 
7 0 1 0 0 1 1 341 
1 0 3 0 0 1 1 341 
3 0 8 0 0 6 1 341 
5 0 3 0 0 2 1 341 
8 0 1 0 0 4 1 341 
7 0 3 0 0 4 1 341 
0 0 0 0 0 0 1 424 
0 0 0 0 0 0 9 343 346 356 357 358 359 360 361 362 
7 0 1 0 0 1 1 344 
4 0 2 0 0 4 2 355 345 
9 0 2 0 0 2 2 354 347 
4 0 7 0 0 2 1 347 
8 0 1 0 0 2 1 348 
10 0 3 0 0 5 1 349 
10 0 1 0 0 3 1 350 
6 0 2 0 0 3 1 351 
9 0 2 0 0 2 1 352 
5 0 3 0 0 1 1 353 
6 0 1 0 0 4 1 363 
1 0 5 0 0 2 1 363 
3 0 2 0 0 2 1 363 
5 0 2 0 0 3 1 363 
5 0 2 0 0 5 1 363 
9 0 4 0 0 2 1 363 
6 0 1 0 0 1 1 363 
3 0 3 0 0 2 1 363 
9 0 4 0 0 3 1 363 
2 0 2 0 0 1 1 363 
0 0 0 0 0 0 1 424 
0 0 0 0 0 0 4 365 368 370 374 
5 0 0 1 0 0 1 366 
10 0 0 1 0 0 1 367 
6 0 0 2 0 0 3 373 372 369 
1 0 0 2 0 0 3 373 372 369 
9 0 0 4 0 0 1 371 
3 0 0 4 0 0 1 371 
6 0 0 2 0 0 1 375 
3 0 0 4 0 0 1 375 
3 0 0 3 0 0 1 375 
10 0 0 2 0 0 1 375 
0 0 0 0 0 0 1 424 
0 0 0 0 0 0 4 377 378 379 381 
10 1 0 0 0 0 2 385 380 
5 1 0 0 0 0 1 380 
2 5 0 0 0 0 3 385 384 383 
3 2 0 0 0 0 2 384 382 
1 3 0 0 0 0 2 384 382 
7 3 0 0 0 0 1 383 
7 4 0 0 0 0 1 386 
2 2 0 0 0 0 1 386 
7 2 0 0 0 0 1 386 
9 2 0 0 0 0 1 387 
0 0 0 0 0 0 1 424 
0 0 0 0 0 0 3 389 390 391 
10 0 0 0 0 1 1 392 
9 0 0 0 0 3 1 392 
7 0 0 0 0 1 1 392 
5 0 0 0 0 2 2 394 393 
7 0 0 0 0 5 2 396 395 
1 0 0 0 0 4 2 396 395 
7 0 0 0 0 2 2 398 397 
10 0 0 0 0 3 2 398 397 
10 0 0 0 0 2 1 399 
6 0 0 0 0 2 1 399 
0 0 0 0 0 0 1 424 
0 0 0 0 0 0 4 401 402 403 405 
9 0 0 0 1 0 2 407 404 
10 0 0 0 2 0 2 407 404 
2 0 0 0 2 0 1 404 
7 0 0 0 2 0 1 406 
1 0 0 0 5 0 1 407 
10 0 0 0 5 0 2 409 408 
5 0 0 0 2 0 2 409 408 
6 0 0 0 1 0 1 410 
7 0 0 0 3 0 1 410 
9 0 0 0 2 0 1 411 
0 0 0 0 0 0 1 424 
0 0 0 0 0 0 3 413 415 417 
7 0 1 0 0 0 1 414 
5 0 1 0 0 0 1 416 
4 0 2 0 0 0 1 416 
5 0 4 0 0 0 3 422 419 418 
9 0 1 0 0 0 2 421 419 
10 0 4 0 0 0 2 421 420 
4 0 3 0 0 0 1 420 
4 0 2 0 0 0 1 423 
4 0 5 0 0 0 1 423 
2 0 2 0 0 0 1 423 
0 0 0 0 0 0 1 424 
0 0 0 0 0 0 0 
